4 
5  38 
6  01 16 31 41 49 56 
7  04 11 19 26 34 41 49 56 
8  04 11 19 26 34 41 49 56 
9  04 11 19 26 34 49 
10  04 19 34 49 
11  04 19 34 49 
12  04 19 34 49 
13  04 18 33 48 
14  03 18 33 48 
15  03 18 26 33 41 48 56 
16  03 11 18 26 33 41 48 56 
17  03 11 18 26 33 41 48 56 
18  03 10 18 25 33 40 48 55 
19  03 19 34 49 
20  04 19 36 51 
21  06 21 36 51 
22  06 21 36 51 
23  06 23 
0 
